K = 3;
V = 20;
edge_weight = [|0, -1, -1, -1, -1, -1, -1, 37, -1, 11, -1, -1, -1, 53, -1, -1, -1, -1, -1, -1|
-1, 0, 57, 23, -1, 1, -1, 23, -1, -1, 19, -1, -1, -1, 2, 29, -1, -1, -1, -1|
-1, -1, 0, -1, -1, -1, -1, -1, -1, -1, -1, -1, 42, -1, -1, -1, -1, -1, -1, -1|
-1, -1, -1, 0, -1, -1, -1, 58, 39, 47, -1, -1, -1, -1, -1, -1, -1, -1, -1, -1|
-1, -1, -1, 18, 0, -1, -1, -1, -1, -1, -1, -1, -1, -1, -1, -1, -1, -1, -1, -1|
-1, 89, -1, 58, -1, 0, -1, -1, -1, -1, -1, -1, -1, 92, -1, 71, 56, -1, -1, 60|
-1, -1, 35, -1, -1, -1, 0, 5, -1, -1, -1, 87, 61, 95, 63, -1, -1, -1, -1, -1|
-1, -1, -1, -1, -1, -1, -1, 0, 57, -1, -1, -1, 67, 91, 70, 100, -1, -1, -1, -1|
-1, -1, -1, 62, 94, 21, -1, 63, 0, -1, 45, 72, -1, -1, -1, -1, -1, -1, -1, -1|
10, -1, -1, -1, -1, -1, 77, 44, 93, 0, 43, 10, -1, -1, -1, -1, -1, -1, -1, 57|
-1, -1, 31, -1, 24, -1, -1, -1, -1, -1, 0, -1, -1, 41, 63, -1, -1, -1, 14, -1|
13, -1, -1, 56, -1, 100, -1, -1, -1, 44, -1, 0, -1, 79, -1, -1, 23, -1, -1, 46|
49, 80, -1, -1, -1, -1, -1, -1, 65, -1, -1, -1, 0, -1, -1, 37, -1, -1, 51, -1|
-1, -1, -1, -1, -1, 94, -1, 29, -1, 23, -1, -1, 63, 0, -1, 4, -1, -1, -1, -1|
-1, -1, 5, -1, -1, -1, -1, -1, -1, -1, -1, -1, -1, 94, 0, 2, -1, -1, 6, 21|
-1, -1, -1, -1, -1, 61, -1, -1, 57, -1, -1, -1, -1, -1, -1, 0, -1, 71, -1, -1|
21, 13, -1, 84, -1, -1, 34, -1, 97, 35, 3, 97, -1, -1, -1, -1, 0, 84, -1, 100|
-1, -1, -1, -1, -1, -1, -1, 19, 16, -1, -1, 40, -1, -1, -1, -1, 61, 0, -1, -1|
61, 82, 8, 2, -1, 25, -1, -1, 53, -1, -1, -1, 9, -1, -1, 31, -1, -1, 0, -1|
-1, -1, 27, -1, -1, -1, -1, -1, 36, -1, -1, -1, 10, -1, -1, -1, -1, -1, -1, 0|];
